
Gurobi 9.0.1 (linux64) logging started Thu Apr 30 06:24:49 2020

Gurobi Optimizer version 9.0.1 build v9.0.1rc0 (linux64)
Optimize a model with 1994 rows, 2120 columns and 19632 nonzeros
Model fingerprint: 0xb918936f
Variable types: 0 continuous, 2120 integer (2106 binary)
Coefficient statistics:
  Matrix range     [1e+00, 7e+00]
  Objective range  [3e+00, 1e+02]
  Bounds range     [1e+00, 1e+00]
  RHS range        [1e+00, 1e+00]

User MIP start produced solution with objective 571 (0.01s)
Loaded user MIP start with objective 571

Presolve removed 494 rows and 672 columns
Presolve time: 0.13s
Presolved: 1500 rows, 1448 columns, 14888 nonzeros
Variable types: 0 continuous, 1448 integer (1436 binary)

Root relaxation: objective 4.006683e+02, 1314 iterations, 0.13 seconds

    Nodes    |    Current Node    |     Objective Bounds      |     Work
 Expl Unexpl |  Obj  Depth IntInf | Incumbent    BestBd   Gap | It/Node Time

     0     0  400.66825    0  551  571.00000  400.66825  29.8%     -    0s
     0     0  443.08017    0  569  571.00000  443.08017  22.4%     -    1s
     0     0  445.89184    0  549  571.00000  445.89184  21.9%     -    1s
     0     0  445.98177    0  547  571.00000  445.98177  21.9%     -    1s
     0     0  445.99774    0  544  571.00000  445.99774  21.9%     -    1s
     0     0  445.99827    0  545  571.00000  445.99827  21.9%     -    1s
     0     0  456.58260    0  569  571.00000  456.58260  20.0%     -    1s
     0     0  458.83595    0  582  571.00000  458.83595  19.6%     -    1s
     0     0  459.20812    0  569  571.00000  459.20812  19.6%     -    1s
     0     0  459.21996    0  570  571.00000  459.21996  19.6%     -    1s
     0     0  473.59653    0  589  571.00000  473.59653  17.1%     -    2s
     0     0  474.77145    0  587  571.00000  474.77145  16.9%     -    2s
     0     0  475.54377    0  583  571.00000  475.54377  16.7%     -    2s
     0     0  475.56445    0  579  571.00000  475.56445  16.7%     -    2s
     0     0  484.48978    0  590  571.00000  484.48978  15.2%     -    3s
     0     0  486.60030    0  589  571.00000  486.60030  14.8%     -    4s
     0     0  486.86016    0  586  571.00000  486.86016  14.7%     -    4s
     0     0  486.88820    0  585  571.00000  486.88820  14.7%     -    4s
     0     0  488.10383    0  586  571.00000  488.10383  14.5%     -    4s
     0     0  488.47600    0  588  571.00000  488.47600  14.5%     -    4s
     0     0  488.49559    0  588  571.00000  488.49559  14.4%     -    4s
     0     0  489.20499    0  597  571.00000  489.20499  14.3%     -    4s
     0     0  489.25930    0  601  571.00000  489.25930  14.3%     -    4s
     0     0  489.27604    0  602  571.00000  489.27604  14.3%     -    4s
     0     0  489.81016    0  586  571.00000  489.81016  14.2%     -    5s
     0     0  489.93712    0  593  571.00000  489.93712  14.2%     -    5s
     0     0  489.95491    0  595  571.00000  489.95491  14.2%     -    5s
     0     0  491.16884    0  593  571.00000  491.16884  14.0%     -    5s
     0     0  491.27593    0  590  571.00000  491.27593  14.0%     -    5s
     0     0  491.28138    0  583  571.00000  491.28138  14.0%     -    5s
     0     0  491.80127    0  589  571.00000  491.80127  13.9%     -    5s
     0     0  492.05449    0  588  571.00000  492.05449  13.8%     -    5s
     0     0  492.11504    0  593  571.00000  492.11504  13.8%     -    5s
     0     0  492.12396    0  592  571.00000  492.12396  13.8%     -    5s
     0     0  492.90909    0  593  571.00000  492.90909  13.7%     -    5s
     0     0  493.03978    0  594  571.00000  493.03978  13.7%     -    5s
     0     0  493.05234    0  592  571.00000  493.05234  13.7%     -    6s
     0     0  493.43432    0  589  571.00000  493.43432  13.6%     -    6s
     0     0  493.43432    0  589  571.00000  493.43432  13.6%     -    6s
     0     0  493.44153    0  540  571.00000  493.44153  13.6%     -    7s
     0     0  493.44153    0  573  571.00000  493.44153  13.6%     -    8s
     0     0  493.44153    0  578  571.00000  493.44153  13.6%     -    8s
     0     0  493.44153    0  581  571.00000  493.44153  13.6%     -    8s
     0     0  493.44153    0  582  571.00000  493.44153  13.6%     -    8s
     0     0  493.44153    0  555  571.00000  493.44153  13.6%     -    8s
     0     0  493.44153    0  562  571.00000  493.44153  13.6%     -    8s
     0     0  493.44153    0  560  571.00000  493.44153  13.6%     -    8s
     0     0  494.14791    0  570  571.00000  494.14791  13.5%     -    9s
     0     0  494.66356    0  573  571.00000  494.66356  13.4%     -    9s
     0     0  494.87606    0  585  571.00000  494.87606  13.3%     -    9s
     0     0  494.90203    0  585  571.00000  494.90203  13.3%     -    9s
     0     0  496.75849    0  586  571.00000  496.75849  13.0%     -   10s
     0     0  497.16376    0  587  571.00000  497.16376  12.9%     -   10s
     0     0  497.21369    0  582  571.00000  497.21369  12.9%     -   10s
     0     0  497.32839    0  583  571.00000  497.32839  12.9%     -   10s
     0     0  497.32839    0  583  571.00000  497.32839  12.9%     -   10s
     0     2  497.33374    0  583  571.00000  497.33374  12.9%     -   11s
    19    21  533.14239   10  493  571.00000  500.23953  12.4%   832   15s
    62    30  524.15945    4  449  571.00000  500.63802  12.3%   584   20s
    88    46  525.13818    2  476  571.00000  501.49013  12.2%   642   25s
   152    80  568.18991   21  351  571.00000  506.67377  11.3%   524   30s
   228   116  555.62056   13  436  571.00000  515.46606  9.73%   459   35s
   306   136  559.62741   18  338  571.00000  516.56340  9.53%   419   40s
   373   157  529.10807    6  518  571.00000  521.75251  8.62%   407   45s
   446   169  550.40779   12  364  571.00000  524.32281  8.17%   396   50s
   529   169  532.89961    9  448  571.00000  526.62089  7.77%   380   55s
   602   174  546.13813    9  439  571.00000  529.41375  7.28%   374   60s
   656   187  545.63808   12  486  571.00000  529.66412  7.24%   380   65s
   727   190  554.95846   14  445  571.00000  531.90097  6.85%   372   70s
   784   188  549.46371   11  425  571.00000  533.76393  6.52%   372   75s
   837   193  560.70452   12  435  571.00000  535.32438  6.25%   375   80s
   897   198     cutoff    8       571.00000  535.80696  6.16%   373   85s
   951   204  555.42961   11  435  571.00000  535.84725  6.16%   370   90s
  1006   206  561.27784   14  399  571.00000  538.58965  5.68%   372   95s
  1060   200  569.34906    7  353  571.00000  540.00203  5.43%   369  100s
  1115   198  548.97343   11  438  571.00000  540.67970  5.31%   367  105s
  1164   194     cutoff   10       571.00000  541.72594  5.13%   369  110s
  1234   182  548.45958    9  454  571.00000  544.71900  4.60%   369  115s
  1273   179  563.33227   17  381  571.00000  545.20062  4.52%   370  120s
  1362   158  556.39931    9  385  571.00000  549.01927  3.85%   365  125s
  1471   123  556.96772    8  377  571.00000  554.82488  2.83%   355  130s
  1630    76     cutoff   13       571.00000  560.31365  1.87%   337  135s

Cutting planes:
  Gomory: 1
  Cover: 6
  MIR: 23
  StrongCG: 2
  GUB cover: 1
  Inf proof: 6
  Zero half: 44
  Mod-K: 2
  RLT: 470

Explored 1754 nodes (578670 simplex iterations) in 137.64 seconds
Thread count was 1 (of 40 available processors)

Solution count 1: 571 

Optimal solution found (tolerance 1.00e-04)
Best objective 5.710000000000e+02, best bound 5.710000000000e+02, gap 0.0000%

User-callback calls 11554, time in user-callback 0.01 sec
